db/data/13906189281148811499414828093147657876.z3.out
sat
-------------------
97.794584419
